# Objective value = 15
y 15
x1 9
r1 0
y1 2
p12 1
q12 0
p13 1
q13 0
p14 0
q14 0
p15 0
q15 0
p16 1
q16 1
p17 1
q17 1
p18 1
q18 0
p19 1
q19 0
p110 0
q110 0
p111 1
q111 0
p112 1
q112 0
p113 1
q113 0
p114 1
q114 0
p115 0
q115 0
p116 1
q116 0
p117 1
q117 0
p118 1
q118 0
p119 1
q119 0
p120 0
q120 0
p121 0
q121 0
p122 0
q122 0
p123 0
q123 0
p124 1
q124 0
p125 1
q125 0
p126 0
q126 0
p127 1
q127 0
p128 0
q128 0
p129 0
q129 0
p130 1
q130 0
p131 0
q131 0
p132 1
q132 0
p133 0
q133 0
p134 1
q134 0
x2 2
r2 0
y2 9
p23 0
q23 0
p24 0
q24 0
p25 1
q25 1
p26 1
q26 1
p27 0
q27 0
p28 0
q28 0
p29 0
q29 1
p210 0
q210 0
p211 0
q211 0
p212 1
q212 1
p213 1
q213 0
p214 1
q214 1
p215 0
q215 0
p216 0
q216 0
p217 1
q217 0
p218 0
q218 0
p219 0
q219 0
p220 0
q220 0
p221 0
q221 0
p222 0
q222 0
p223 0
q223 0
p224 1
q224 0
p225 0
q225 0
p226 0
q226 0
p227 0
q227 0
p228 0
q228 0
p229 0
q229 0
p230 0
q230 0
p231 0
q231 0
p232 0
q232 1
p233 0
q233 0
p234 0
q234 0
x3 7
r3 0
y3 10
p34 1
q34 1
p35 1
q35 1
p36 1
q36 1
p37 1
q37 1
p38 1
q38 0
p39 1
q39 0
p310 0
q310 0
p311 1
q311 0
p312 1
q312 1
p313 1
q313 0
p314 1
q314 1
p315 0
q315 0
p316 0
q316 0
p317 1
q317 0
p318 1
q318 0
p319 1
q319 0
p320 0
q320 0
p321 0
q321 0
p322 0
q322 0
p323 0
q323 0
p324 1
q324 0
p325 1
q325 1
p326 0
q326 0
p327 1
q327 1
p328 0
q328 0
p329 0
q329 0
p330 1
q330 0
p331 0
q331 0
p332 0
q332 1
p333 0
q333 0
p334 1
q334 1
x4 14
r4 0
y4 0
p45 1
q45 0
p46 1
q46 0
p47 1
q47 0
p48 1
q48 0
p49 1
q49 0
p410 1
q410 0
p411 1
q411 0
p412 1
q412 0
p413 1
q413 0
p414 1
q414 0
p415 1
q415 0
p416 1
q416 0
p417 1
q417 0
p418 1
q418 0
p419 1
q419 0
p420 1
q420 0
p421 0
q421 0
p422 1
q422 0
p423 0
q423 0
p424 1
q424 0
p425 1
q425 0
p426 0
q426 0
p427 1
q427 0
p428 0
q428 1
p429 0
q429 0
p430 1
q430 0
p431 0
q431 0
p432 1
q432 0
p433 0
q433 0
p434 1
q434 0
x5 10
r5 0
y5 0
p56 1
q56 0
p57 0
q57 0
p58 1
q58 0
p59 0
q59 1
p510 0
q510 0
p511 1
q511 0
p512 1
q512 0
p513 1
q513 0
p514 1
q514 0
p515 0
q515 0
p516 1
q516 0
p517 0
q517 1
p518 0
q518 1
p519 1
q519 0
p520 0
q520 0
p521 0
q521 0
p522 0
q522 0
p523 0
q523 0
p524 1
q524 0
p525 1
q525 0
p526 0
q526 0
p527 1
q527 0
p528 0
q528 0
p529 0
q529 0
p530 1
q530 0
p531 0
q531 0
p532 0
q532 1
p533 0
q533 0
p534 1
q534 0
x6 0
r6 0
y6 0
p67 0
q67 0
p68 0
q68 1
p69 0
q69 1
p610 0
q610 0
p611 0
q611 0
p612 0
q612 0
p613 0
q613 1
p614 0
q614 0
p615 0
q615 0
p616 0
q616 0
p617 0
q617 1
p618 0
q618 0
p619 0
q619 0
p620 0
q620 0
p621 0
q621 0
p622 0
q622 0
p623 0
q623 0
p624 0
q624 0
p625 0
q625 0
p626 0
q626 0
p627 0
q627 0
p628 0
q628 0
p629 0
q629 0
p630 0
q630 0
p631 0
q631 0
p632 0
q632 1
p633 0
q633 0
p634 0
q634 0
x7 11
r7 0
y7 0
p78 1
q78 0
p79 1
q79 0
p710 0
q710 0
p711 1
q711 0
p712 1
q712 0
p713 1
q713 0
p714 1
q714 0
p715 0
q715 1
p716 1
q716 0
p717 1
q717 0
p718 0
q718 1
p719 1
q719 0
p720 0
q720 0
p721 0
q721 1
p722 0
q722 0
p723 0
q723 0
p724 1
q724 0
p725 0
q725 1
p726 0
q726 0
p727 1
q727 0
p728 0
q728 0
p729 0
q729 0
p730 1
q730 0
p731 0
q731 0
p732 0
q732 1
p733 0
q733 0
p734 1
q734 0
x8 4
r8 0
y8 4
p89 0
q89 1
p810 0
q810 0
p811 1
q811 1
p812 1
q812 1
p813 1
q813 0
p814 1
q814 0
p815 0
q815 0
p816 0
q816 0
p817 1
q817 0
p818 0
q818 0
p819 1
q819 0
p820 0
q820 0
p821 0
q821 0
p822 0
q822 0
p823 0
q823 0
p824 1
q824 0
p825 0
q825 0
p826 0
q826 0
p827 0
q827 0
p828 0
q828 0
p829 0
q829 0
p830 0
q830 0
p831 0
q831 0
p832 0
q832 1
p833 0
q833 0
p834 0
q834 0
x9 1
r9 0
y9 13
p910 0
q910 0
p911 0
q911 0
p912 1
q912 1
p913 1
q913 0
p914 1
q914 1
p915 1
q915 1
p916 0
q916 0
p917 1
q917 0
p918 0
q918 0
p919 0
q919 0
p920 0
q920 0
p921 0
q921 0
p922 0
q922 0
p923 0
q923 0
p924 1
q924 1
p925 0
q925 0
p926 0
q926 0
p927 1
q927 1
p928 0
q928 0
p929 0
q929 0
p930 0
q930 0
p931 0
q931 0
p932 0
q932 0
p933 0
q933 0
p934 0
q934 0
x10 12
r10 0
y10 0
p1011 1
q1011 0
p1012 1
q1012 0
p1013 1
q1013 0
p1014 1
q1014 0
p1015 1
q1015 0
p1016 1
q1016 0
p1017 1
q1017 0
p1018 1
q1018 0
p1019 1
q1019 0
p1020 0
q1020 0
p1021 0
q1021 0
p1022 0
q1022 0
p1023 0
q1023 0
p1024 1
q1024 0
p1025 1
q1025 0
p1026 0
q1026 0
p1027 1
q1027 0
p1028 0
q1028 0
p1029 0
q1029 0
p1030 1
q1030 0
p1031 0
q1031 0
p1032 1
q1032 0
p1033 0
q1033 0
p1034 1
q1034 0
x11 3
r11 0
y11 0
p1112 1
q1112 0
p1113 1
q1113 0
p1114 1
q1114 0
p1115 0
q1115 0
p1116 0
q1116 0
p1117 0
q1117 1
p1118 0
q1118 1
p1119 0
q1119 1
p1120 0
q1120 0
p1121 0
q1121 0
p1122 0
q1122 0
p1123 0
q1123 0
p1124 1
q1124 0
p1125 0
q1125 0
p1126 0
q1126 0
p1127 0
q1127 0
p1128 0
q1128 0
p1129 0
q1129 0
p1130 0
q1130 1
p1131 0
q1131 0
p1132 1
q1132 0
p1133 0
q1133 0
p1134 0
q1134 0
x12 1
r12 0
y12 0
p1213 1
q1213 0
p1214 0
q1214 0
p1215 0
q1215 0
p1216 0
q1216 0
p1217 0
q1217 1
p1218 0
q1218 0
p1219 0
q1219 0
p1220 0
q1220 0
p1221 0
q1221 0
p1222 0
q1222 0
p1223 0
q1223 0
p1224 0
q1224 1
p1225 0
q1225 0
p1226 0
q1226 0
p1227 0
q1227 0
p1228 0
q1228 0
p1229 0
q1229 0
p1230 0
q1230 0
p1231 0
q1231 0
p1232 0
q1232 1
p1233 0
q1233 0
p1234 0
q1234 0
x13 0
r13 0
y13 2
p1314 0
q1314 0
p1315 0
q1315 0
p1316 0
q1316 0
p1317 0
q1317 1
p1318 0
q1318 0
p1319 0
q1319 0
p1320 0
q1320 0
p1321 0
q1321 0
p1322 0
q1322 0
p1323 0
q1323 0
p1324 0
q1324 0
p1325 0
q1325 0
p1326 0
q1326 0
p1327 0
q1327 0
p1328 0
q1328 0
p1329 0
q1329 0
p1330 0
q1330 0
p1331 0
q1331 0
p1332 0
q1332 0
p1333 0
q1333 0
p1334 0
q1334 0
x14 2
r14 0
y14 0
p1415 0
q1415 1
p1416 0
q1416 0
p1417 0
q1417 1
p1418 0
q1418 0
p1419 0
q1419 0
p1420 0
q1420 0
p1421 0
q1421 0
p1422 0
q1422 0
p1423 0
q1423 0
p1424 1
q1424 0
p1425 0
q1425 0
p1426 0
q1426 0
p1427 0
q1427 0
p1428 0
q1428 0
p1429 0
q1429 0
p1430 0
q1430 0
p1431 0
q1431 0
p1432 0
q1432 1
p1433 0
q1433 0
p1434 0
q1434 0
x15 11
r15 0
y15 7
p1516 1
q1516 0
p1517 1
q1517 0
p1518 1
q1518 0
p1519 1
q1519 0
p1520 0
q1520 0
p1521 0
q1521 0
p1522 1
q1522 1
p1523 0
q1523 0
p1524 1
q1524 0
p1525 1
q1525 0
p1526 0
q1526 0
p1527 1
q1527 1
p1528 0
q1528 0
p1529 0
q1529 0
p1530 1
q1530 0
p1531 0
q1531 0
p1532 0
q1532 1
p1533 0
q1533 0
p1534 1
q1534 1
x16 8
r16 0
y16 0
p1617 1
q1617 0
p1618 1
q1618 0
p1619 1
q1619 0
p1620 0
q1620 0
p1621 0
q1621 0
p1622 0
q1622 0
p1623 0
q1623 0
p1624 1
q1624 0
p1625 1
q1625 0
p1626 0
q1626 0
p1627 1
q1627 0
p1628 0
q1628 0
p1629 0
q1629 0
p1630 1
q1630 0
p1631 0
q1631 0
p1632 1
q1632 0
p1633 0
q1633 0
p1634 1
q1634 0
x17 0
r17 0
y17 10
p1718 0
q1718 0
p1719 0
q1719 0
p1720 0
q1720 0
p1721 0
q1721 0
p1722 0
q1722 0
p1723 0
q1723 0
p1724 0
q1724 0
p1725 0
q1725 0
p1726 0
q1726 0
p1727 0
q1727 0
p1728 0
q1728 0
p1729 0
q1729 0
p1730 0
q1730 0
p1731 0
q1731 0
p1732 0
q1732 0
p1733 0
q1733 0
p1734 0
q1734 0
x18 6
r18 0
y18 9
p1819 1
q1819 0
p1820 0
q1820 0
p1821 0
q1821 0
p1822 0
q1822 0
p1823 0
q1823 0
p1824 1
q1824 0
p1825 1
q1825 1
p1826 0
q1826 0
p1827 1
q1827 1
p1828 0
q1828 0
p1829 0
q1829 0
p1830 1
q1830 0
p1831 0
q1831 0
p1832 1
q1832 0
p1833 0
q1833 0
p1834 1
q1834 1
x19 3
r19 0
y19 3
p1920 0
q1920 0
p1921 0
q1921 0
p1922 0
q1922 0
p1923 0
q1923 0
p1924 1
q1924 0
p1925 0
q1925 0
p1926 0
q1926 0
p1927 1
q1927 1
p1928 0
q1928 0
p1929 0
q1929 0
p1930 0
q1930 0
p1931 0
q1931 0
p1932 1
q1932 0
p1933 0
q1933 0
p1934 0
q1934 0
x20 13
r20 0
y20 7
p2021 0
q2021 0
p2022 1
q2022 1
p2023 0
q2023 0
p2024 1
q2024 0
p2025 1
q2025 0
p2026 0
q2026 0
p2027 1
q2027 0
p2028 0
q2028 0
p2029 0
q2029 0
p2030 1
q2030 0
p2031 0
q2031 0
p2032 1
q2032 0
p2033 0
q2033 0
p2034 1
q2034 0
x21 15
r21 0
y21 9
p2122 1
q2122 1
p2123 0
q2123 0
p2124 1
q2124 0
p2125 1
q2125 1
p2126 0
q2126 0
p2127 1
q2127 0
p2128 0
q2128 0
p2129 0
q2129 0
p2130 1
q2130 0
p2131 1
q2131 1
p2132 1
q2132 0
p2133 1
q2133 1
p2134 1
q2134 1
x22 13
r22 0
y22 0
p2223 0
q2223 1
p2224 1
q2224 0
p2225 0
q2225 1
p2226 0
q2226 0
p2227 1
q2227 0
p2228 0
q2228 1
p2229 0
q2229 0
p2230 1
q2230 0
p2231 0
q2231 0
p2232 0
q2232 1
p2233 0
q2233 0
p2234 1
q2234 0
x23 16
r23 0
y23 4
p2324 1
q2324 0
p2325 1
q2325 0
p2326 1
q2326 1
p2327 1
q2327 0
p2328 0
q2328 1
p2329 0
q2329 0
p2330 1
q2330 0
p2331 0
q2331 0
p2332 1
q2332 0
p2333 1
q2333 0
p2334 1
q2334 1
x24 1
r24 0
y24 4
p2425 0
q2425 0
p2426 0
q2426 0
p2427 0
q2427 0
p2428 0
q2428 0
p2429 0
q2429 0
p2430 0
q2430 0
p2431 0
q2431 0
p2432 0
q2432 1
p2433 0
q2433 0
p2434 0
q2434 0
x25 6
r25 0
y25 4
p2526 1
q2526 1
p2527 1
q2527 1
p2528 0
q2528 0
p2529 0
q2529 0
p2530 1
q2530 0
p2531 0
q2531 0
p2532 1
q2532 0
p2533 0
q2533 0
p2534 1
q2534 1
x26 17
r26 0
y26 0
p2627 1
q2627 0
p2628 0
q2628 1
p2629 0
q2629 1
p2630 1
q2630 0
p2631 0
q2631 1
p2632 1
q2632 0
p2633 1
q2633 0
p2634 1
q2634 0
x27 6
r27 0
y27 0
p2728 0
q2728 0
p2729 0
q2729 0
p2730 1
q2730 0
p2731 0
q2731 0
p2732 0
q2732 1
p2733 0
q2733 0
p2734 0
q2734 0
x28 17
r28 0
y28 12
p2829 1
q2829 1
p2830 1
q2830 0
p2831 1
q2831 1
p2832 1
q2832 0
p2833 1
q2833 0
p2834 1
q2834 1
x29 17
r29 0
y29 6
p2930 1
q2930 0
p2931 1
q2931 1
p2932 1
q2932 0
p2933 1
q2933 0
p2934 1
q2934 0
x30 5
r30 0
y30 4
p3031 0
q3031 0
p3032 1
q3032 0
p3033 0
q3033 0
p3034 0
q3034 0
x31 17
r31 0
y31 3
p3132 1
q3132 0
p3133 1
q3133 0
p3134 1
q3134 0
x32 2
r32 0
y32 13
p3233 0
q3233 0
p3234 0
q3234 0
x33 15
r33 0
y33 0
p3334 1
q3334 0
x34 7
r34 0
y34 1
